10J3M/DAT/10J3MNNX-13.dat
10 3
28.7819 5.3649
19.6765 4.4358
17.0346 4.1273
23.2354 4.8203
28.0683 5.298
17.4355 4.1756
36.9554 6.0791
20.8101 4.5618
26.9646 5.1927
35.2225 5.9349
49.9904