10J3M/SOL/10J3MNNX-13.sol
solution status: optimal solution found
objective value:                     84.7282666666667
x#1#1                                0.99157572409512 	(obj:0)
x#1#2                             0.00842427590487974 	(obj:0)
x#2#2                                               1 	(obj:0)
x#3#2                                               1 	(obj:0)
x#4#3                                               1 	(obj:0)
x#5#1                                               1 	(obj:0)
x#6#3                                               1 	(obj:0)
x#7#3                                               1 	(obj:0)
x#8#2                                               1 	(obj:0)
x#9#2                                               1 	(obj:0)
x#10#1                              0.798368467125654 	(obj:0)
x#10#3                              0.201631532874347 	(obj:0)
z                                    84.7282666666667 	(obj:1)
